p cnf 963 2472
51 -2 -1 0
-51 2 0
-51 1 0
52 -51 -3 0
-52 51 0
-52 3 0
53 -5 -696 0
-53 5 0
-53 696 0
54 -53 -697 0
-54 53 0
-54 697 0
55 -698 -699 0
-55 698 0
-55 699 0
56 -7 -1 0
-56 7 0
-56 1 0
57 -56 -700 0
-57 56 0
-57 700 0
58 -701 -55 0
-58 701 0
-58 55 0
59 -9 -4 0
-59 9 0
-59 4 0
60 -59 -10 0
-60 59 0
-60 10 0
61 -702 -58 0
-61 702 0
-61 58 0
62 -703 -700 0
-62 703 0
-62 700 0
63 -62 -704 0
-63 62 0
-63 704 0
64 -705 -61 0
-64 705 0
-64 61 0
65 -14 -13 0
-65 14 0
-65 13 0
66 -65 -15 0
-66 65 0
-66 15 0
67 -706 -64 0
-67 706 0
-67 64 0
68 -17 -16 0
-68 17 0
-68 16 0
69 -68 -18 0
-69 68 0
-69 18 0
70 -707 -67 0
-70 707 0
-70 67 0
71 -708 -11 0
-71 708 0
-71 11 0
72 -71 -20 0
-72 71 0
-72 20 0
73 -709 -70 0
-73 709 0
-73 70 0
74 -710 -8 0
-74 710 0
-74 8 0
75 -74 -5 0
-75 74 0
-75 5 0
76 -711 -73 0
-76 711 0
-76 73 0
77 -22 -14 0
-77 22 0
-77 14 0
78 -77 -23 0
-78 77 0
-78 23 0
79 -712 -76 0
-79 712 0
-79 76 0
80 -20 -713 0
-80 20 0
-80 713 0
81 -80 -714 0
-81 80 0
-81 714 0
82 -715 -79 0
-82 715 0
-82 79 0
83 -26 -25 0
-83 26 0
-83 25 0
84 -83 -716 0
-84 83 0
-84 716 0
85 -717 -82 0
-85 717 0
-85 82 0
86 -28 -718 0
-86 28 0
-86 718 0
87 -86 -719 0
-87 86 0
-87 719 0
88 -720 -85 0
-88 720 0
-88 85 0
89 -30 -29 0
-89 30 0
-89 29 0
90 -89 -12 0
-90 89 0
-90 12 0
91 -721 -88 0
-91 721 0
-91 88 0
92 -722 -723 0
-92 722 0
-92 723 0
93 -92 -724 0
-93 92 0
-93 724 0
94 -725 -91 0
-94 725 0
-94 91 0
95 -32 -726 0
-95 32 0
-95 726 0
96 -95 -33 0
-96 95 0
-96 33 0
97 -727 -94 0
-97 727 0
-97 94 0
98 -724 -4 0
-98 724 0
-98 4 0
99 -98 -22 0
-99 98 0
-99 22 0
100 -728 -97 0
-100 728 0
-100 97 0
101 -729 -1 0
-101 729 0
-101 1 0
102 -101 -19 0
-102 101 0
-102 19 0
103 -730 -100 0
-103 730 0
-103 100 0
104 -35 -729 0
-104 35 0
-104 729 0
105 -104 -731 0
-105 104 0
-105 731 0
106 -732 -103 0
-106 732 0
-106 103 0
107 -36 -708 0
-107 36 0
-107 708 0
108 -107 -733 0
-108 107 0
-108 733 0
109 -734 -106 0
-109 734 0
-109 106 0
110 -35 -21 0
-110 35 0
-110 21 0
111 -110 -735 0
-111 110 0
-111 735 0
112 -736 -109 0
-112 736 0
-112 109 0
113 -16 -1 0
-113 16 0
-113 1 0
114 -113 -733 0
-114 113 0
-114 733 0
115 -737 -112 0
-115 737 0
-115 112 0
116 -724 -29 0
-116 724 0
-116 29 0
117 -116 -38 0
-117 116 0
-117 38 0
118 -738 -115 0
-118 738 0
-118 115 0
119 -739 -3 0
-119 739 0
-119 3 0
120 -119 -39 0
-120 119 0
-120 39 0
121 -740 -118 0
-121 740 0
-121 118 0
122 -741 -742 0
-122 741 0
-122 742 0
123 -122 -15 0
-123 122 0
-123 15 0
124 -743 -121 0
-124 743 0
-124 121 0
125 -722 -744 0
-125 722 0
-125 744 0
126 -125 -8 0
-126 125 0
-126 8 0
127 -745 -124 0
-127 745 0
-127 124 0
128 -722 -716 0
-128 722 0
-128 716 0
129 -128 -37 0
-129 128 0
-129 37 0
130 -746 -127 0
-130 746 0
-130 127 0
131 -744 -713 0
-131 744 0
-131 713 0
132 -131 -697 0
-132 131 0
-132 697 0
133 -747 -130 0
-133 747 0
-133 130 0
134 -16 -703 0
-134 16 0
-134 703 0
135 -134 -38 0
-135 134 0
-135 38 0
136 -748 -133 0
-136 748 0
-136 133 0
137 -41 -22 0
-137 41 0
-137 22 0
138 -137 -17 0
-138 137 0
-138 17 0
139 -749 -136 0
-139 749 0
-139 136 0
140 -29 -26 0
-140 29 0
-140 26 0
141 -140 -30 0
-141 140 0
-141 30 0
142 -750 -139 0
-142 750 0
-142 139 0
143 -703 -696 0
-143 703 0
-143 696 0
144 -143 -751 0
-144 143 0
-144 751 0
145 -752 -142 0
-145 752 0
-145 142 0
146 -753 -726 0
-146 753 0
-146 726 0
147 -146 -15 0
-147 146 0
-147 15 0
148 -754 -145 0
-148 754 0
-148 145 0
149 -40 -753 0
-149 40 0
-149 753 0
150 -149 -733 0
-150 149 0
-150 733 0
151 -755 -148 0
-151 755 0
-151 148 0
152 -756 -719 0
-152 756 0
-152 719 0
153 -152 -757 0
-153 152 0
-153 757 0
154 -758 -151 0
-154 758 0
-154 151 0
155 -43 -42 0
-155 43 0
-155 42 0
156 -155 -719 0
-156 155 0
-156 719 0
157 -759 -154 0
-157 759 0
-157 154 0
158 -729 -29 0
-158 729 0
-158 29 0
159 -158 -42 0
-159 158 0
-159 42 0
160 -760 -157 0
-160 760 0
-160 157 0
161 -27 -696 0
-161 27 0
-161 696 0
162 -161 -714 0
-162 161 0
-162 714 0
163 -761 -160 0
-163 761 0
-163 160 0
164 -29 -708 0
-164 29 0
-164 708 0
165 -164 -6 0
-165 164 0
-165 6 0
166 -762 -163 0
-166 762 0
-166 163 0
167 -41 -704 0
-167 41 0
-167 704 0
168 -167 -763 0
-168 167 0
-168 763 0
169 -764 -166 0
-169 764 0
-169 166 0
170 -765 -41 0
-170 765 0
-170 41 0
171 -170 -14 0
-171 170 0
-171 14 0
172 -766 -169 0
-172 766 0
-172 169 0
173 -767 -768 0
-173 767 0
-173 768 0
174 -173 -15 0
-174 173 0
-174 15 0
175 -769 -172 0
-175 769 0
-175 172 0
176 -37 -770 0
-176 37 0
-176 770 0
177 -176 -5 0
-177 176 0
-177 5 0
178 -771 -175 0
-178 771 0
-178 175 0
179 -756 -10 0
-179 756 0
-179 10 0
180 -179 -772 0
-180 179 0
-180 772 0
181 -773 -178 0
-181 773 0
-181 178 0
182 -742 -33 0
-182 742 0
-182 33 0
183 -182 -2 0
-183 182 0
-183 2 0
184 -774 -181 0
-184 774 0
-184 181 0
185 -39 -724 0
-185 39 0
-185 724 0
186 -185 -714 0
-186 185 0
-186 714 0
187 -775 -184 0
-187 775 0
-187 184 0
188 -43 -776 0
-188 43 0
-188 776 0
189 -188 -704 0
-189 188 0
-189 704 0
190 -777 -187 0
-190 777 0
-190 187 0
191 -778 -1 0
-191 778 0
-191 1 0
192 -191 -22 0
-192 191 0
-192 22 0
193 -779 -190 0
-193 779 0
-193 190 0
194 -726 -1 0
-194 726 0
-194 1 0
195 -194 -9 0
-195 194 0
-195 9 0
196 -780 -193 0
-196 780 0
-196 193 0
197 -35 -767 0
-197 35 0
-197 767 0
198 -197 -700 0
-198 197 0
-198 700 0
199 -781 -196 0
-199 781 0
-199 196 0
200 -33 -770 0
-200 33 0
-200 770 0
201 -200 -18 0
-201 200 0
-201 18 0
202 -782 -199 0
-202 782 0
-202 199 0
203 -735 -756 0
-203 735 0
-203 756 0
204 -203 -5 0
-204 203 0
-204 5 0
205 -783 -202 0
-205 783 0
-205 202 0
206 -25 -19 0
-206 25 0
-206 19 0
207 -206 -8 0
-207 206 0
-207 8 0
208 -784 -205 0
-208 784 0
-208 205 0
209 -785 -713 0
-209 785 0
-209 713 0
210 -209 -18 0
-210 209 0
-210 18 0
211 -786 -208 0
-211 786 0
-211 208 0
212 -716 -768 0
-212 716 0
-212 768 0
213 -212 -44 0
-213 212 0
-213 44 0
214 -787 -211 0
-214 787 0
-214 211 0
215 -735 -2 0
-215 735 0
-215 2 0
216 -215 -719 0
-216 215 0
-216 719 0
217 -788 -214 0
-217 788 0
-217 214 0
218 -763 -789 0
-218 763 0
-218 789 0
219 -218 -790 0
-219 218 0
-219 790 0
220 -791 -217 0
-220 791 0
-220 217 0
221 -14 -792 0
-221 14 0
-221 792 0
222 -221 -697 0
-222 221 0
-222 697 0
223 -793 -220 0
-223 793 0
-223 220 0
224 -778 -744 0
-224 778 0
-224 744 0
225 -224 -24 0
-225 224 0
-225 24 0
226 -794 -223 0
-226 794 0
-226 223 0
227 -33 -22 0
-227 33 0
-227 22 0
228 -227 -24 0
-228 227 0
-228 24 0
229 -795 -226 0
-229 795 0
-229 226 0
230 -716 -1 0
-230 716 0
-230 1 0
231 -230 -724 0
-231 230 0
-231 724 0
232 -796 -229 0
-232 796 0
-232 229 0
233 -733 -18 0
-233 733 0
-233 18 0
234 -233 -39 0
-234 233 0
-234 39 0
235 -797 -232 0
-235 797 0
-235 232 0
236 -42 -790 0
-236 42 0
-236 790 0
237 -236 -24 0
-237 236 0
-237 24 0
238 -798 -235 0
-238 798 0
-238 235 0
239 -696 -1 0
-239 696 0
-239 1 0
240 -239 -703 0
-240 239 0
-240 703 0
241 -799 -238 0
-241 799 0
-241 238 0
242 -731 -9 0
-242 731 0
-242 9 0
243 -242 -5 0
-243 242 0
-243 5 0
244 -800 -241 0
-244 800 0
-244 241 0
245 -776 -28 0
-245 776 0
-245 28 0
246 -245 -723 0
-246 245 0
-246 723 0
247 -801 -244 0
-247 801 0
-247 244 0
248 -28 -770 0
-248 28 0
-248 770 0
249 -248 -19 0
-249 248 0
-249 19 0
250 -802 -247 0
-250 802 0
-250 247 0
251 -48 -4 0
-251 48 0
-251 4 0
252 -251 -22 0
-252 251 0
-252 22 0
253 -803 -250 0
-253 803 0
-253 250 0
254 -804 -3 0
-254 804 0
-254 3 0
255 -254 -757 0
-255 254 0
-255 757 0
256 -805 -253 0
-256 805 0
-256 253 0
257 -785 -28 0
-257 785 0
-257 28 0
258 -257 -29 0
-258 257 0
-258 29 0
259 -806 -256 0
-259 806 0
-259 256 0
260 -703 -770 0
-260 703 0
-260 770 0
261 -260 -700 0
-261 260 0
-261 700 0
262 -807 -259 0
-262 807 0
-262 259 0
263 -46 -33 0
-263 46 0
-263 33 0
264 -263 -739 0
-264 263 0
-264 739 0
265 -808 -262 0
-265 808 0
-265 262 0
266 -48 -35 0
-266 48 0
-266 35 0
267 -266 -708 0
-267 266 0
-267 708 0
268 -809 -265 0
-268 809 0
-268 265 0
269 -17 -9 0
-269 17 0
-269 9 0
270 -269 -12 0
-270 269 0
-270 12 0
271 -810 -268 0
-271 810 0
-271 268 0
272 -710 -768 0
-272 710 0
-272 768 0
273 -272 -811 0
-273 272 0
-273 811 0
274 -812 -271 0
-274 812 0
-274 271 0
275 -708 -2 0
-275 708 0
-275 2 0
276 -275 -704 0
-276 275 0
-276 704 0
277 -813 -274 0
-277 813 0
-277 274 0
278 -41 -804 0
-278 41 0
-278 804 0
279 -278 -713 0
-279 278 0
-279 713 0
280 -814 -277 0
-280 814 0
-280 277 0
281 -765 -789 0
-281 765 0
-281 789 0
282 -281 -719 0
-282 281 0
-282 719 0
283 -815 -280 0
-283 815 0
-283 280 0
284 -767 -770 0
-284 767 0
-284 770 0
285 -284 -6 0
-285 284 0
-285 6 0
286 -816 -283 0
-286 816 0
-286 283 0
287 -817 -751 0
-287 817 0
-287 751 0
288 -287 -18 0
-288 287 0
-288 18 0
289 -818 -286 0
-289 818 0
-289 286 0
290 -742 -10 0
-290 742 0
-290 10 0
291 -290 -713 0
-291 290 0
-291 713 0
292 -819 -289 0
-292 819 0
-292 289 0
293 -47 -713 0
-293 47 0
-293 713 0
294 -293 -44 0
-294 293 0
-294 44 0
295 -820 -292 0
-295 820 0
-295 292 0
296 -47 -34 0
-296 47 0
-296 34 0
297 -296 -19 0
-297 296 0
-297 19 0
298 -821 -295 0
-298 821 0
-298 295 0
299 -729 -708 0
-299 729 0
-299 708 0
300 -299 -2 0
-300 299 0
-300 2 0
301 -822 -298 0
-301 822 0
-301 298 0
302 -741 -11 0
-302 741 0
-302 11 0
303 -302 -14 0
-303 302 0
-303 14 0
304 -823 -301 0
-304 823 0
-304 301 0
305 -48 -700 0
-305 48 0
-305 700 0
306 -305 -3 0
-306 305 0
-306 3 0
307 -824 -304 0
-307 824 0
-307 304 0
308 -770 -6 0
-308 770 0
-308 6 0
309 -308 -714 0
-309 308 0
-309 714 0
310 -825 -307 0
-310 825 0
-310 307 0
311 -735 -710 0
-311 735 0
-311 710 0
312 -311 -39 0
-312 311 0
-312 39 0
313 -826 -310 0
-313 826 0
-313 310 0
314 -26 -696 0
-314 26 0
-314 696 0
315 -314 -827 0
-315 314 0
-315 827 0
316 -828 -313 0
-316 828 0
-316 313 0
317 -43 -29 0
-317 43 0
-317 29 0
318 -317 -38 0
-318 317 0
-318 38 0
319 -829 -316 0
-319 829 0
-319 316 0
320 -742 -28 0
-320 742 0
-320 28 0
321 -320 -751 0
-321 320 0
-321 751 0
322 -830 -319 0
-322 830 0
-322 319 0
323 -17 -696 0
-323 17 0
-323 696 0
324 -323 -38 0
-324 323 0
-324 38 0
325 -831 -322 0
-325 831 0
-325 322 0
326 -35 -731 0
-326 35 0
-326 731 0
327 -326 -739 0
-327 326 0
-327 739 0
328 -832 -325 0
-328 832 0
-328 325 0
329 -43 -770 0
-329 43 0
-329 770 0
330 -329 -45 0
-330 329 0
-330 45 0
331 -833 -328 0
-331 833 0
-331 328 0
332 -834 -716 0
-332 834 0
-332 716 0
333 -332 -44 0
-333 332 0
-333 44 0
334 -835 -331 0
-334 835 0
-334 331 0
335 -49 -36 0
-335 49 0
-335 36 0
336 -335 -48 0
-336 335 0
-336 48 0
337 -836 -334 0
-337 836 0
-337 334 0
338 -834 -804 0
-338 834 0
-338 804 0
339 -338 -731 0
-339 338 0
-339 731 0
340 -837 -337 0
-340 837 0
-340 337 0
341 -729 -697 0
-341 729 0
-341 697 0
342 -341 -739 0
-342 341 0
-342 739 0
343 -838 -340 0
-343 838 0
-343 340 0
344 -839 -36 0
-344 839 0
-344 36 0
345 -344 -731 0
-345 344 0
-345 731 0
346 -840 -343 0
-346 840 0
-346 343 0
347 -21 -726 0
-347 21 0
-347 726 0
348 -347 -17 0
-348 347 0
-348 17 0
349 -841 -346 0
-349 841 0
-349 346 0
350 -776 -21 0
-350 776 0
-350 21 0
351 -350 -697 0
-351 350 0
-351 697 0
352 -842 -349 0
-352 842 0
-352 349 0
353 -104 -789 0
-353 104 0
-353 789 0
354 -843 -352 0
-354 843 0
-354 352 0
355 -827 -696 0
-355 827 0
-355 696 0
356 -355 -8 0
-356 355 0
-356 8 0
357 -844 -354 0
-357 844 0
-357 354 0
358 -188 -49 0
-358 188 0
-358 49 0
359 -845 -357 0
-359 845 0
-359 357 0
360 -146 -723 0
-360 146 0
-360 723 0
361 -846 -359 0
-361 846 0
-361 359 0
362 -726 -7 0
-362 726 0
-362 7 0
363 -362 -42 0
-363 362 0
-363 42 0
364 -847 -361 0
-364 847 0
-364 361 0
365 -848 -742 0
-365 848 0
-365 742 0
366 -365 -38 0
-366 365 0
-366 38 0
367 -849 -364 0
-367 849 0
-367 364 0
368 -850 -10 0
-368 850 0
-368 10 0
369 -368 -46 0
-369 368 0
-369 46 0
370 -851 -367 0
-370 851 0
-370 367 0
371 -278 -17 0
-371 278 0
-371 17 0
372 -852 -370 0
-372 852 0
-372 370 0
373 -710 -733 0
-373 710 0
-373 733 0
374 -373 -739 0
-374 373 0
-374 739 0
375 -853 -372 0
-375 853 0
-375 372 0
376 -46 -32 0
-376 46 0
-376 32 0
377 -376 -733 0
-377 376 0
-377 733 0
378 -854 -375 0
-378 854 0
-378 375 0
379 -756 -731 0
-379 756 0
-379 731 0
380 -379 -792 0
-380 379 0
-380 792 0
381 -855 -378 0
-381 855 0
-381 378 0
382 -716 -713 0
-382 716 0
-382 713 0
383 -382 -744 0
-383 382 0
-383 744 0
384 -856 -381 0
-384 856 0
-384 381 0
385 -36 -21 0
-385 36 0
-385 21 0
386 -385 -44 0
-386 385 0
-386 44 0
387 -857 -384 0
-387 857 0
-387 384 0
388 -804 -10 0
-388 804 0
-388 10 0
389 -388 -2 0
-389 388 0
-389 2 0
390 -858 -387 0
-390 858 0
-390 387 0
391 -789 -713 0
-391 789 0
-391 713 0
392 -391 -792 0
-392 391 0
-392 792 0
393 -859 -390 0
-393 859 0
-393 390 0
394 -733 -5 0
-394 733 0
-394 5 0
395 -394 -714 0
-395 394 0
-395 714 0
396 -860 -393 0
-396 860 0
-396 393 0
397 -34 -703 0
-397 34 0
-397 703 0
398 -397 -14 0
-398 397 0
-398 14 0
399 -861 -396 0
-399 861 0
-399 396 0
400 -45 -756 0
-400 45 0
-400 756 0
401 -400 -12 0
-401 400 0
-401 12 0
402 -862 -399 0
-402 862 0
-402 399 0
403 -32 -13 0
-403 32 0
-403 13 0
404 -403 -722 0
-404 403 0
-404 722 0
405 -863 -402 0
-405 863 0
-405 402 0
406 -785 -718 0
-406 785 0
-406 718 0
407 -406 -14 0
-407 406 0
-407 14 0
408 -864 -405 0
-408 864 0
-408 405 0
409 -48 -2 0
-409 48 0
-409 2 0
410 -409 -739 0
-410 409 0
-410 739 0
411 -865 -408 0
-411 865 0
-411 408 0
412 -850 -785 0
-412 850 0
-412 785 0
413 -412 -29 0
-413 412 0
-413 29 0
414 -866 -411 0
-414 866 0
-414 411 0
415 -36 -16 0
-415 36 0
-415 16 0
416 -415 -757 0
-416 415 0
-416 757 0
417 -867 -414 0
-417 867 0
-417 414 0
418 -27 -767 0
-418 27 0
-418 767 0
419 -418 -772 0
-419 418 0
-419 772 0
420 -868 -417 0
-420 868 0
-420 417 0
421 -789 -792 0
-421 789 0
-421 792 0
422 -421 -714 0
-422 421 0
-422 714 0
423 -869 -420 0
-423 869 0
-423 420 0
424 -47 -27 0
-424 47 0
-424 27 0
425 -424 -45 0
-425 424 0
-425 45 0
426 -870 -423 0
-426 870 0
-426 423 0
427 -765 -4 0
-427 765 0
-427 4 0
428 -427 -772 0
-428 427 0
-428 772 0
429 -871 -426 0
-429 871 0
-429 426 0
430 -753 -1 0
-430 753 0
-430 1 0
431 -430 -40 0
-431 430 0
-431 40 0
432 -872 -429 0
-432 872 0
-432 429 0
433 -839 -27 0
-433 839 0
-433 27 0
434 -433 -37 0
-434 433 0
-434 37 0
435 -873 -432 0
-435 873 0
-435 432 0
436 -48 -723 0
-436 48 0
-436 723 0
437 -436 -30 0
-437 436 0
-437 30 0
438 -874 -435 0
-438 874 0
-438 435 0
439 -729 -26 0
-439 729 0
-439 26 0
440 -439 -827 0
-440 439 0
-440 827 0
441 -875 -438 0
-441 875 0
-441 438 0
442 -25 -708 0
-442 25 0
-442 708 0
443 -442 -20 0
-443 442 0
-443 20 0
444 -876 -441 0
-444 876 0
-444 441 0
445 -33 -28 0
-445 33 0
-445 28 0
446 -445 -37 0
-446 445 0
-446 37 0
447 -877 -444 0
-447 877 0
-447 444 0
448 -708 -718 0
-448 708 0
-448 718 0
449 -448 -24 0
-449 448 0
-449 24 0
450 -878 -447 0
-450 878 0
-450 447 0
451 -776 -9 0
-451 776 0
-451 9 0
452 -451 -24 0
-452 451 0
-452 24 0
453 -879 -450 0
-453 879 0
-453 450 0
454 -45 -789 0
-454 45 0
-454 789 0
455 -454 -8 0
-455 454 0
-455 8 0
456 -880 -453 0
-456 880 0
-456 453 0
457 -778 -41 0
-457 778 0
-457 41 0
458 -457 -713 0
-458 457 0
-458 713 0
459 -881 -456 0
-459 881 0
-459 456 0
460 -43 -25 0
-460 43 0
-460 25 0
461 -460 -850 0
-461 460 0
-461 850 0
462 -882 -459 0
-462 882 0
-462 459 0
463 -756 -17 0
-463 756 0
-463 17 0
464 -463 -719 0
-464 463 0
-464 719 0
465 -883 -462 0
-465 883 0
-465 462 0
466 -39 -21 0
-466 39 0
-466 21 0
467 -466 -757 0
-467 466 0
-467 757 0
468 -884 -465 0
-468 884 0
-468 465 0
469 -25 -11 0
-469 25 0
-469 11 0
470 -469 -756 0
-470 469 0
-470 756 0
471 -885 -468 0
-471 885 0
-471 468 0
472 -13 -4 0
-472 13 0
-472 4 0
473 -472 -713 0
-473 472 0
-473 713 0
474 -886 -471 0
-474 886 0
-474 471 0
475 -742 -18 0
-475 742 0
-475 18 0
476 -475 -39 0
-476 475 0
-476 39 0
477 -887 -474 0
-477 887 0
-477 474 0
478 -785 -817 0
-478 785 0
-478 817 0
479 -478 -8 0
-479 478 0
-479 8 0
480 -888 -477 0
-480 888 0
-480 477 0
481 -713 -2 0
-481 713 0
-481 2 0
482 -481 -38 0
-482 481 0
-482 38 0
483 -889 -480 0
-483 889 0
-483 480 0
484 -735 -33 0
-484 735 0
-484 33 0
485 -484 -733 0
-485 484 0
-485 733 0
486 -890 -483 0
-486 890 0
-486 483 0
487 -753 -23 0
-487 753 0
-487 23 0
488 -487 -697 0
-488 487 0
-488 697 0
489 -891 -486 0
-489 891 0
-489 486 0
490 -751 -41 0
-490 751 0
-490 41 0
491 -490 -24 0
-491 490 0
-491 24 0
492 -892 -489 0
-492 892 0
-492 489 0
493 -35 -708 0
-493 35 0
-493 708 0
494 -493 -12 0
-494 493 0
-494 12 0
495 -893 -492 0
-495 893 0
-495 492 0
496 -28 -21 0
-496 28 0
-496 21 0
497 -496 -733 0
-497 496 0
-497 733 0
498 -894 -495 0
-498 894 0
-498 495 0
499 -10 -9 0
-499 10 0
-499 9 0
500 -499 -700 0
-500 499 0
-500 700 0
501 -895 -498 0
-501 895 0
-501 498 0
502 -741 -10 0
-502 741 0
-502 10 0
503 -502 -18 0
-503 502 0
-503 18 0
504 -896 -501 0
-504 896 0
-504 501 0
505 -713 -696 0
-505 713 0
-505 696 0
506 -505 -897 0
-506 505 0
-506 897 0
507 -898 -504 0
-507 898 0
-507 504 0
508 -817 -753 0
-508 817 0
-508 753 0
509 -508 -19 0
-509 508 0
-509 19 0
510 -899 -507 0
-510 899 0
-510 507 0
511 -848 -28 0
-511 848 0
-511 28 0
512 -511 -24 0
-512 511 0
-512 24 0
513 -900 -510 0
-513 900 0
-513 510 0
514 -756 -26 0
-514 756 0
-514 26 0
515 -514 -18 0
-515 514 0
-515 18 0
516 -901 -513 0
-516 901 0
-516 513 0
517 -332 -14 0
-517 332 0
-517 14 0
518 -902 -516 0
-518 902 0
-518 516 0
519 -834 -47 0
-519 834 0
-519 47 0
520 -519 -757 0
-520 519 0
-520 757 0
521 -903 -518 0
-521 903 0
-521 518 0
522 -776 -10 0
-522 776 0
-522 10 0
523 -522 -790 0
-523 522 0
-523 790 0
524 -904 -521 0
-524 904 0
-524 521 0
525 -744 -726 0
-525 744 0
-525 726 0
526 -525 -38 0
-526 525 0
-526 38 0
527 -905 -524 0
-527 905 0
-527 524 0
528 -36 -704 0
-528 36 0
-528 704 0
529 -528 -763 0
-529 528 0
-529 763 0
530 -906 -527 0
-530 906 0
-530 527 0
531 -742 -768 0
-531 742 0
-531 768 0
532 -531 -39 0
-532 531 0
-532 39 0
533 -907 -530 0
-533 907 0
-533 530 0
534 -26 -8 0
-534 26 0
-534 8 0
535 -534 -718 0
-535 534 0
-535 718 0
536 -908 -533 0
-536 908 0
-536 533 0
537 -32 -28 0
-537 32 0
-537 28 0
538 -537 -5 0
-538 537 0
-538 5 0
539 -909 -536 0
-539 909 0
-539 536 0
540 -36 -718 0
-540 36 0
-540 718 0
541 -540 -3 0
-541 540 0
-541 3 0
542 -910 -539 0
-542 910 0
-542 539 0
543 -729 -8 0
-543 729 0
-543 8 0
544 -543 -50 0
-544 543 0
-544 50 0
545 -911 -542 0
-545 911 0
-545 542 0
546 -753 -697 0
-546 753 0
-546 697 0
547 -546 -790 0
-547 546 0
-547 790 0
548 -912 -545 0
-548 912 0
-548 545 0
549 -733 -16 0
-549 733 0
-549 16 0
550 -549 -757 0
-550 549 0
-550 757 0
551 -913 -548 0
-551 913 0
-551 548 0
552 -765 -772 0
-552 765 0
-552 772 0
553 -552 -848 0
-553 552 0
-553 848 0
554 -914 -551 0
-554 914 0
-554 551 0
555 -742 -17 0
-555 742 0
-555 17 0
556 -555 -757 0
-556 555 0
-556 757 0
557 -915 -554 0
-557 915 0
-557 554 0
558 -350 -37 0
-558 350 0
-558 37 0
559 -916 -557 0
-559 916 0
-559 557 0
560 -22 -704 0
-560 22 0
-560 704 0
561 -560 -790 0
-561 560 0
-561 790 0
562 -917 -559 0
-562 917 0
-562 559 0
563 -763 -722 0
-563 763 0
-563 722 0
564 -563 -739 0
-564 563 0
-564 739 0
565 -918 -562 0
-565 918 0
-565 562 0
566 -34 -9 0
-566 34 0
-566 9 0
567 -566 -697 0
-567 566 0
-567 697 0
568 -919 -565 0
-568 919 0
-568 565 0
569 -43 -19 0
-569 43 0
-569 19 0
570 -569 -719 0
-570 569 0
-570 719 0
571 -920 -568 0
-571 920 0
-571 568 0
572 -776 -696 0
-572 776 0
-572 696 0
573 -572 -834 0
-573 572 0
-573 834 0
574 -921 -571 0
-574 921 0
-574 571 0
575 -804 -4 0
-575 804 0
-575 4 0
576 -575 -757 0
-576 575 0
-576 757 0
577 -922 -574 0
-577 922 0
-577 574 0
578 -724 -733 0
-578 724 0
-578 733 0
579 -578 -15 0
-579 578 0
-579 15 0
580 -923 -577 0
-580 923 0
-580 577 0
581 -41 -3 0
-581 41 0
-581 3 0
582 -581 -719 0
-582 581 0
-582 719 0
583 -924 -580 0
-583 924 0
-583 580 0
584 -742 -756 0
-584 742 0
-584 756 0
585 -584 -897 0
-585 584 0
-585 897 0
586 -925 -583 0
-586 925 0
-586 583 0
587 -850 -29 0
-587 850 0
-587 29 0
588 -587 -31 0
-588 587 0
-588 31 0
589 -926 -586 0
-589 926 0
-589 586 0
590 -834 -42 0
-590 834 0
-590 42 0
591 -590 -744 0
-591 590 0
-591 744 0
592 -927 -589 0
-592 927 0
-592 589 0
593 -44 -10 0
-593 44 0
-593 10 0
594 -593 -733 0
-594 593 0
-594 733 0
595 -928 -592 0
-595 928 0
-595 592 0
596 -770 -768 0
-596 770 0
-596 768 0
597 -596 -827 0
-597 596 0
-597 827 0
598 -929 -595 0
-598 929 0
-598 595 0
599 -36 -29 0
-599 36 0
-599 29 0
600 -599 -10 0
-600 599 0
-600 10 0
601 -930 -598 0
-601 930 0
-601 598 0
602 -735 -703 0
-602 735 0
-602 703 0
603 -602 -24 0
-603 602 0
-603 24 0
604 -931 -601 0
-604 931 0
-604 601 0
605 -27 -792 0
-605 27 0
-605 792 0
606 -605 -763 0
-606 605 0
-606 763 0
607 -932 -604 0
-607 932 0
-607 604 0
608 -817 -19 0
-608 817 0
-608 19 0
609 -608 -24 0
-609 608 0
-609 24 0
610 -933 -607 0
-610 933 0
-610 607 0
611 -776 -804 0
-611 776 0
-611 804 0
612 -611 -934 0
-612 611 0
-612 934 0
613 -935 -610 0
-613 935 0
-613 610 0
614 -719 -5 0
-614 719 0
-614 5 0
615 -614 -44 0
-615 614 0
-615 44 0
616 -936 -613 0
-616 936 0
-616 613 0
617 -42 -753 0
-617 42 0
-617 753 0
618 -617 -731 0
-618 617 0
-618 731 0
619 -937 -616 0
-619 937 0
-619 616 0
620 -83 -714 0
-620 83 0
-620 714 0
621 -938 -619 0
-621 938 0
-621 619 0
622 -765 -26 0
-622 765 0
-622 26 0
623 -622 -42 0
-623 622 0
-623 42 0
624 -939 -621 0
-624 939 0
-624 621 0
625 -744 -696 0
-625 744 0
-625 696 0
626 -625 -23 0
-626 625 0
-626 23 0
627 -940 -624 0
-627 940 0
-627 624 0
628 -25 -4 0
-628 25 0
-628 4 0
629 -628 -710 0
-629 628 0
-629 710 0
630 -941 -627 0
-630 941 0
-630 627 0
631 -789 -772 0
-631 789 0
-631 772 0
632 -631 -697 0
-632 631 0
-632 697 0
633 -942 -630 0
-633 942 0
-633 630 0
634 -729 -13 0
-634 729 0
-634 13 0
635 -634 -708 0
-635 634 0
-635 708 0
636 -943 -633 0
-636 943 0
-636 633 0
637 -839 -811 0
-637 839 0
-637 811 0
638 -637 -29 0
-638 637 0
-638 29 0
639 -944 -636 0
-639 944 0
-639 636 0
640 -33 -708 0
-640 33 0
-640 708 0
641 -640 -38 0
-641 640 0
-641 38 0
642 -945 -639 0
-642 945 0
-642 639 0
643 -776 -11 0
-643 776 0
-643 11 0
644 -643 -33 0
-644 643 0
-644 33 0
645 -946 -642 0
-645 946 0
-645 642 0
646 -41 -729 0
-646 41 0
-646 729 0
647 -646 -733 0
-647 646 0
-647 733 0
648 -947 -645 0
-648 947 0
-648 645 0
649 -741 -726 0
-649 741 0
-649 726 0
650 -649 -46 0
-650 649 0
-650 46 0
651 -948 -648 0
-651 948 0
-651 648 0
652 -17 -768 0
-652 17 0
-652 768 0
653 -652 -700 0
-653 652 0
-653 700 0
654 -949 -651 0
-654 949 0
-654 651 0
655 -22 -708 0
-655 22 0
-655 708 0
656 -655 -6 0
-656 655 0
-656 6 0
657 -950 -654 0
-657 950 0
-657 654 0
658 -41 -10 0
-658 41 0
-658 10 0
659 -658 -12 0
-659 658 0
-659 12 0
660 -951 -657 0
-660 951 0
-660 657 0
661 -36 -28 0
-661 36 0
-661 28 0
662 -661 -739 0
-662 661 0
-662 739 0
663 -952 -660 0
-663 952 0
-663 660 0
664 -21 -696 0
-664 21 0
-664 696 0
665 -664 -46 0
-665 664 0
-665 46 0
666 -953 -663 0
-666 953 0
-666 663 0
667 -756 -772 0
-667 756 0
-667 772 0
668 -667 -6 0
-668 667 0
-668 6 0
669 -954 -666 0
-669 954 0
-669 666 0
670 -834 -25 0
-670 834 0
-670 25 0
671 -670 -731 0
-671 670 0
-671 731 0
672 -955 -669 0
-672 955 0
-672 669 0
673 -475 -3 0
-673 475 0
-673 3 0
674 -956 -672 0
-674 956 0
-674 672 0
675 -14 -697 0
-675 14 0
-675 697 0
676 -675 -714 0
-676 675 0
-676 714 0
677 -957 -674 0
-677 957 0
-677 674 0
678 -735 -897 0
-678 735 0
-678 897 0
679 -678 -39 0
-679 678 0
-679 39 0
680 -958 -677 0
-680 958 0
-680 677 0
681 -47 -1 0
-681 47 0
-681 1 0
682 -681 -827 0
-682 681 0
-682 827 0
683 -959 -680 0
-683 959 0
-683 680 0
684 -42 -726 0
-684 42 0
-684 726 0
685 -684 -5 0
-685 684 0
-685 5 0
686 -960 -683 0
-686 960 0
-686 683 0
687 -834 -696 0
-687 834 0
-687 696 0
688 -687 -792 0
-688 687 0
-688 792 0
689 -961 -686 0
-689 961 0
-689 686 0
690 -36 -827 0
-690 36 0
-690 827 0
691 -690 -763 0
-691 690 0
-691 763 0
692 -962 -689 0
-692 962 0
-692 689 0
693 -731 -4 0
-693 731 0
-693 4 0
694 -693 -37 0
-694 693 0
-694 37 0
695 -963 -692 0
-695 963 0
-695 692 0
-696 -4 0
696 4 0
-697 -6 0
697 6 0
-698 -54 0
698 54 0
-699 -52 0
699 52 0
-700 -8 0
700 8 0
-701 -57 0
701 57 0
-702 -60 0
702 60 0
-703 -11 0
703 11 0
-704 -12 0
704 12 0
-705 -63 0
705 63 0
-706 -66 0
706 66 0
-707 -69 0
707 69 0
-708 -19 0
708 19 0
-709 -72 0
709 72 0
-710 -21 0
710 21 0
-711 -75 0
711 75 0
-712 -78 0
712 78 0
-713 -17 0
713 17 0
-714 -24 0
714 24 0
-715 -81 0
715 81 0
-716 -27 0
716 27 0
-717 -84 0
717 84 0
-718 -5 0
718 5 0
-719 -23 0
719 23 0
-720 -87 0
720 87 0
-721 -90 0
721 90 0
-722 -31 0
722 31 0
-723 -10 0
723 10 0
-724 -30 0
724 30 0
-725 -93 0
725 93 0
-726 -16 0
726 16 0
-727 -96 0
727 96 0
-728 -99 0
728 99 0
-729 -34 0
729 34 0
-730 -102 0
730 102 0
-731 -22 0
731 22 0
-732 -105 0
732 105 0
-733 -20 0
733 20 0
-734 -108 0
734 108 0
-735 -37 0
735 37 0
-736 -111 0
736 111 0
-737 -114 0
737 114 0
-738 -117 0
738 117 0
-739 -15 0
739 15 0
-740 -120 0
740 120 0
-741 -40 0
741 40 0
-742 -36 0
742 36 0
-743 -123 0
743 123 0
-744 -18 0
744 18 0
-745 -126 0
745 126 0
-746 -129 0
746 129 0
-747 -132 0
747 132 0
-748 -135 0
748 135 0
-749 -138 0
749 138 0
-750 -141 0
750 141 0
-751 -42 0
751 42 0
-752 -144 0
752 144 0
-753 -26 0
753 26 0
-754 -147 0
754 147 0
-755 -150 0
755 150 0
-756 -33 0
756 33 0
-757 -38 0
757 38 0
-758 -153 0
758 153 0
-759 -156 0
759 156 0
-760 -159 0
760 159 0
-761 -162 0
761 162 0
-762 -165 0
762 165 0
-763 -44 0
763 44 0
-764 -168 0
764 168 0
-765 -45 0
765 45 0
-766 -171 0
766 171 0
-767 -13 0
767 13 0
-768 -1 0
768 1 0
-769 -174 0
769 174 0
-770 -9 0
770 9 0
-771 -177 0
771 177 0
-772 -3 0
772 3 0
-773 -180 0
773 180 0
-774 -183 0
774 183 0
-775 -186 0
775 186 0
-776 -35 0
776 35 0
-777 -189 0
777 189 0
-778 -46 0
778 46 0
-779 -192 0
779 192 0
-780 -195 0
780 195 0
-781 -198 0
781 198 0
-782 -201 0
782 201 0
-783 -204 0
783 204 0
-784 -207 0
784 207 0
-785 -47 0
785 47 0
-786 -210 0
786 210 0
-787 -213 0
787 213 0
-788 -216 0
788 216 0
-789 -29 0
789 29 0
-790 -39 0
790 39 0
-791 -219 0
791 219 0
-792 -2 0
792 2 0
-793 -222 0
793 222 0
-794 -225 0
794 225 0
-795 -228 0
795 228 0
-796 -231 0
796 231 0
-797 -234 0
797 234 0
-798 -237 0
798 237 0
-799 -240 0
799 240 0
-800 -243 0
800 243 0
-801 -246 0
801 246 0
-802 -249 0
802 249 0
-803 -252 0
803 252 0
-804 -28 0
804 28 0
-805 -255 0
805 255 0
-806 -258 0
806 258 0
-807 -261 0
807 261 0
-808 -264 0
808 264 0
-809 -267 0
809 267 0
-810 -270 0
810 270 0
-811 -32 0
811 32 0
-812 -273 0
812 273 0
-813 -276 0
813 276 0
-814 -279 0
814 279 0
-815 -282 0
815 282 0
-816 -285 0
816 285 0
-817 -43 0
817 43 0
-818 -288 0
818 288 0
-819 -291 0
819 291 0
-820 -294 0
820 294 0
-821 -297 0
821 297 0
-822 -300 0
822 300 0
-823 -303 0
823 303 0
-824 -306 0
824 306 0
-825 -309 0
825 309 0
-826 -312 0
826 312 0
-827 -7 0
827 7 0
-828 -315 0
828 315 0
-829 -318 0
829 318 0
-830 -321 0
830 321 0
-831 -324 0
831 324 0
-832 -327 0
832 327 0
-833 -330 0
833 330 0
-834 -48 0
834 48 0
-835 -333 0
835 333 0
-836 -336 0
836 336 0
-837 -339 0
837 339 0
-838 -342 0
838 342 0
-839 -41 0
839 41 0
-840 -345 0
840 345 0
-841 -348 0
841 348 0
-842 -351 0
842 351 0
-843 -353 0
843 353 0
-844 -356 0
844 356 0
-845 -358 0
845 358 0
-846 -360 0
846 360 0
-847 -363 0
847 363 0
-848 -50 0
848 50 0
-849 -366 0
849 366 0
-850 -49 0
850 49 0
-851 -369 0
851 369 0
-852 -371 0
852 371 0
-853 -374 0
853 374 0
-854 -377 0
854 377 0
-855 -380 0
855 380 0
-856 -383 0
856 383 0
-857 -386 0
857 386 0
-858 -389 0
858 389 0
-859 -392 0
859 392 0
-860 -395 0
860 395 0
-861 -398 0
861 398 0
-862 -401 0
862 401 0
-863 -404 0
863 404 0
-864 -407 0
864 407 0
-865 -410 0
865 410 0
-866 -413 0
866 413 0
-867 -416 0
867 416 0
-868 -419 0
868 419 0
-869 -422 0
869 422 0
-870 -425 0
870 425 0
-871 -428 0
871 428 0
-872 -431 0
872 431 0
-873 -434 0
873 434 0
-874 -437 0
874 437 0
-875 -440 0
875 440 0
-876 -443 0
876 443 0
-877 -446 0
877 446 0
-878 -449 0
878 449 0
-879 -452 0
879 452 0
-880 -455 0
880 455 0
-881 -458 0
881 458 0
-882 -461 0
882 461 0
-883 -464 0
883 464 0
-884 -467 0
884 467 0
-885 -470 0
885 470 0
-886 -473 0
886 473 0
-887 -476 0
887 476 0
-888 -479 0
888 479 0
-889 -482 0
889 482 0
-890 -485 0
890 485 0
-891 -488 0
891 488 0
-892 -491 0
892 491 0
-893 -494 0
893 494 0
-894 -497 0
894 497 0
-895 -500 0
895 500 0
-896 -503 0
896 503 0
-897 -14 0
897 14 0
-898 -506 0
898 506 0
-899 -509 0
899 509 0
-900 -512 0
900 512 0
-901 -515 0
901 515 0
-902 -517 0
902 517 0
-903 -520 0
903 520 0
-904 -523 0
904 523 0
-905 -526 0
905 526 0
-906 -529 0
906 529 0
-907 -532 0
907 532 0
-908 -535 0
908 535 0
-909 -538 0
909 538 0
-910 -541 0
910 541 0
-911 -544 0
911 544 0
-912 -547 0
912 547 0
-913 -550 0
913 550 0
-914 -553 0
914 553 0
-915 -556 0
915 556 0
-916 -558 0
916 558 0
-917 -561 0
917 561 0
-918 -564 0
918 564 0
-919 -567 0
919 567 0
-920 -570 0
920 570 0
-921 -573 0
921 573 0
-922 -576 0
922 576 0
-923 -579 0
923 579 0
-924 -582 0
924 582 0
-925 -585 0
925 585 0
-926 -588 0
926 588 0
-927 -591 0
927 591 0
-928 -594 0
928 594 0
-929 -597 0
929 597 0
-930 -600 0
930 600 0
-931 -603 0
931 603 0
-932 -606 0
932 606 0
-933 -609 0
933 609 0
-934 -25 0
934 25 0
-935 -612 0
935 612 0
-936 -615 0
936 615 0
-937 -618 0
937 618 0
-938 -620 0
938 620 0
-939 -623 0
939 623 0
-940 -626 0
940 626 0
-941 -629 0
941 629 0
-942 -632 0
942 632 0
-943 -635 0
943 635 0
-944 -638 0
944 638 0
-945 -641 0
945 641 0
-946 -644 0
946 644 0
-947 -647 0
947 647 0
-948 -650 0
948 650 0
-949 -653 0
949 653 0
-950 -656 0
950 656 0
-951 -659 0
951 659 0
-952 -662 0
952 662 0
-953 -665 0
953 665 0
-954 -668 0
954 668 0
-955 -671 0
955 671 0
-956 -673 0
956 673 0
-957 -676 0
957 676 0
-958 -679 0
958 679 0
-959 -682 0
959 682 0
-960 -685 0
960 685 0
-961 -688 0
961 688 0
-962 -691 0
962 691 0
-963 -694 0
963 694 0
695 0
